NAME : LRC2_6_2
TYPE : PDPTW
DIMENSION : 150
EDGE_WEIGHT_TYPE : EXACT_2D
NODE_COORD_SECTION
1 1 0
2 150 0
3 0 0
4 -20 3467
5 0 2
6 0 4769
7 3 199
8 2164 10
9 61 84
10 10 0
11 103 20
12 0 428
13 10 224
14 546 7
15 0 4691
16 8 230
17 1642 10
18 55 68
19 10 565
20 180 -18
21 450 0
22 11 1225
23 272 12
24 755 875
25 13 257
26 772 10
27 57 155
28 10 246
29 26 -10
30 154 0
31 10 433
32 465 17
33 0 4715
34 18 89
35 4706 10
36 84 231
37 10 0
38 240 -2
39 45 0
40 20 0
41 605 22
42 554 674
43 23 180
44 4760 10
45 240 73
46 10 0
47 265 -14
48 535 0
49 20 361
50 340 27
51 0 4673
52 28 160
53 358 10
54 289 130
55 10 586
56 255 5
57 0 410
58 38 1408
59 351 32
60 2328 2448
61 33 115
62 291 10
63 250 228
64 10 156
65 89 22
66 0 62
67 20 270
68 67 37
69 0 4780
70 38 159
71 4663 10
72 47 277
73 10 19
74 269 -2
75 355 0
76 30 893
77 321 42
78 0 4677
79 43 74
80 3338 10
81 140 140
82 10 0
83 241 2
84 0 20
85 20 333
86 242 47
87 265 385
88 48 136
89 2497 10
90 250 124
91 10 83
92 299 24
93 0 529
94 10 851
95 303 52
96 413 533
97 53 212
98 4706 10
99 259 59
100 10 286
101 104 21
102 0 254
103 20 658
104 264 57
105 2518 2638
106 58 57
107 963 10
108 232 121
109 10 267
110 132 10
111 0 219
112 -20 1483
113 0 62
114 0 4774
115 63 143
116 218 10
117 248 41
118 10 401
119 263 30
120 0 210
121 20 355
122 597 67
123 453 573
124 68 259
125 4672 10
126 38 139
127 10 0
128 41 -20
129 53 0
130 10 543
131 84 72
132 0 4670
133 73 102
134 3494 10
135 43 286
136 10 0
137 160 20
138 0 192
139 13 438
140 145 77
141 0 4685
142 78 88
143 2656 10
144 122 127
145 10 191
146 63 10
147 0 12
148 -5 330
149 0 82
150 2562 2682
PICKUP_AND_DELIVERY_SECTION
1 0 0 0 0 0 0
2 0 0 0 0 4823 0
3 0 0 0 0 0 125
4 0 0 0 0 10 10
5 0 0 0 0 107 107
6 0 0 0 0 0 0
7 0 0 0 0 13 13
8 0 0 0 0 228 0
9 0 0 0 0 1334 1334
10 0 0 0 0 5 5
11 0 0 0 0 273 273
12 0 0 0 0 143 143
13 0 0 0 0 10 10
14 0 0 0 0 141 141
15 0 0 0 0 22 22
16 0 0 0 0 21 21
17 0 0 0 0 169 0
18 0 0 0 0 570 570
19 0 0 0 0 10 0
20 0 0 0 0 1608 1608
21 0 0 0 0 159 159
22 0 0 0 0 10 10
23 0 0 0 0 4 4
24 0 0 0 0 80 80
25 0 0 0 0 -20 -20
26 0 0 0 0 0 0
27 0 0 0 0 0 0
28 0 0 0 0 15 0
29 0 0 0 0 2379 2379
30 0 0 0 0 231 231
31 0 0 0 0 10 10
32 0 0 0 0 132 132
33 0 0 0 0 396 396
34 0 0 0 0 -19 -19
35 0 0 0 0 0 0
36 0 0 0 0 0 0
37 0 0 0 0 20 20
38 0 0 0 0 2221 2221
39 0 0 0 0 110 110
40 0 0 0 0 0 0
41 0 0 0 0 74 74
42 0 0 0 0 0 0
43 0 0 0 0 19 19
44 0 0 0 0 289 0
45 0 0 0 0 457 457
46 0 0 0 0 25 25
47 0 0 0 0 775 775
48 0 0 0 0 134 134
49 0 0 0 0 10 10
50 0 0 0 0 59 59
51 0 0 0 0 589 589
52 0 0 0 0 10 10
53 0 0 0 0 207 0
54 0 0 0 0 1318 1318
55 0 0 0 0 30 0
56 0 0 0 0 1082 1082
57 0 0 0 0 234 234
58 0 0 0 0 10 10
59 0 0 0 0 208 208
60 0 0 0 0 0 0
61 0 0 0 0 10 10
62 0 0 0 0 596 0
63 0 0 0 0 3107 3107
64 0 0 0 0 35 0
65 0 0 0 0 3425 3425
66 0 0 0 0 105 105
67 0 0 0 0 10 10
68 0 0 0 0 183 183
69 0 0 0 0 0 0
70 0 0 0 0 15 15
71 0 0 0 0 366 0
72 0 0 0 0 594 594
73 0 0 0 0 40 0
74 0 0 0 0 1903 1903
75 0 0 0 0 212 212
76 0 0 0 0 10 10
77 0 0 0 0 149 149
78 0 0 0 0 0 0
79 0 0 0 0 -20 -20
80 0 0 0 0 0 0
81 0 0 0 0 41 41
82 0 0 0 0 45 45
83 0 0 0 0 4722 0
84 0 0 0 0 222 222
85 0 0 0 0 10 10
86 0 0 0 0 124 124
87 0 0 0 0 0 0
88 0 0 0 0 -9 -9
89 0 0 0 0 0 0
90 0 0 0 0 532 532
91 0 0 0 0 50 0
92 0 0 0 0 1626 1626
93 0 0 0 0 258 258
94 0 0 0 0 10 10
95 0 0 0 0 47 47
96 0 0 0 0 0 0
97 0 0 0 0 20 20
98 0 0 0 0 70 0
99 0 0 0 0 744 744
100 0 0 0 0 55 0
101 0 0 0 0 397 397
102 0 0 0 0 77 77
103 0 0 0 0 10 10
104 0 0 0 0 45 45
105 0 0 0 0 0 0
106 0 0 0 0 23 23
107 0 0 0 0 427 0
108 0 0 0 0 0 0
109 0 0 0 0 60 0
110 0 0 0 0 729 729
111 0 0 0 0 18 18
112 0 0 0 0 10 10
113 0 0 0 0 113 113
114 0 0 0 0 35 35
115 0 0 0 0 20 20
116 0 0 0 0 77 0
117 0 0 0 0 0 0
118 0 0 0 0 65 0
119 0 0 0 0 878 878
120 0 0 0 0 109 109
121 0 0 0 0 10 10
122 0 0 0 0 71 71
123 0 0 0 0 36 36
124 0 0 0 0 10 10
125 0 0 0 0 447 0
126 0 0 0 0 1348 1348
127 0 0 0 0 70 70
128 0 0 0 0 1497 1497
129 0 0 0 0 255 255
130 0 0 0 0 10 10
131 0 0 0 0 122 122
132 0 0 0 0 115 115
133 0 0 0 0 -24 -24
134 0 0 0 0 0 0
135 0 0 0 0 673 673
136 0 0 0 0 75 75
137 0 0 0 0 463 463
138 0 0 0 0 172 172
139 0 0 0 0 10 10
140 0 0 0 0 22 22
141 0 0 0 0 63 63
142 0 0 0 0 1 1
143 0 0 0 0 544 0
144 0 0 0 0 0 0
145 0 0 0 0 80 0
146 0 0 0 0 753 753
147 0 0 0 0 53 53
148 0 0 0 0 10 10
149 0 0 0 0 281 281
150 0 0 0 0 97 97
DEPOT_SECTION
1 
-1
EOF
